start neutral
memory 1600 mb
geometry
 C   -1.839814    3.896085    3.187034
 C   -1.656129    3.272620    1.957133
 H   -2.453931    3.417794    3.947311
 C   -1.203928    5.097055    3.487603
 H   -2.301662    2.456086    1.653650
 C   -0.830920    3.900326    0.965648
 C   -0.406732    5.740885    2.547065
 H   -1.343980    5.540033    4.470403
 C   -0.611754    3.276969   -0.289210
 C   -0.198437    5.134758    1.264476
 H    0.243301    6.559052    2.841226
 H   -1.282834    2.483839   -0.603747
 C    0.198438    3.912243   -1.264476
 C    0.611755    5.770032    0.289211
 C    0.406732    3.306116   -2.547066
 C    0.830920    5.146675   -0.965649
 H    1.282834    6.563162    0.603747
 H   -0.243302    2.487949   -2.841226
 C    1.203928    3.949945   -3.487603
 C    1.656128    5.774381   -1.957134
 H    1.343980    3.506968   -4.470403
 C    1.839813    5.150916   -3.187034
 H    2.301662    6.590915   -1.653650
 H    2.453931    5.629208   -3.947310
end

basis
 H library 6-311+G*
 C library 6-311+G*
end

dft
 xc b3lyp
 grid fine
 convergence energy 1.000000E-04 density 1.000000E-04
 iterations 200
 disp vdw 3
end

cosmo
 dielec 2.5
end

task dft energy
